p cnf 449 314
d 0.875 0.125
d 0.875 0.125
d 0.875 0.125
d 0.875 0.125
d 0.875 0.125
d 0.875 0.125
d 0.875 0.125
d 0.875 0.125
d 0.875 0.125
d 0.875 0.125
d 0.875 0.125
d 0.875 0.125
d 0.875 0.125
d 0.875 0.125
d 0.875 0.125
d 0.875 0.125
d 0.875 0.125
d 0.875 0.125
d 0.875 0.125
d 0.875 0.125
d 0.875 0.125
d 0.875 0.125
d 0.875 0.125
d 0.875 0.125
d 0.875 0.125
d 0.875 0.125
d 0.875 0.125
d 0.875 0.125
d 0.875 0.125
d 0.875 0.125
d 0.875 0.125
d 0.875 0.125
d 0.875 0.125
d 0.875 0.125
d 0.875 0.125
d 0.875 0.125
d 0.875 0.125
d 0.875 0.125
d 0.875 0.125
d 0.875 0.125
d 0.875 0.125
d 0.875 0.125
d 0.875 0.125
d 0.875 0.125
d 0.875 0.125
d 0.875 0.125
d 0.875 0.125
d 0.875 0.125
d 0.875 0.125
d 0.875 0.125
d 0.875 0.125
d 0.875 0.125
d 0.875 0.125
d 0.875 0.125
d 0.875 0.125
d 0.875 0.125
d 0.875 0.125
d 0.875 0.125
d 0.875 0.125
d 0.875 0.125
d 0.875 0.125
d 0.875 0.125
d 0.875 0.125
d 0.875 0.125
d 0.875 0.125
d 0.875 0.125
d 0.875 0.125
d 0.875 0.125
d 0.875 0.125
d 0.875 0.125
d 0.875 0.125
d 0.875 0.125
d 0.875 0.125
d 0.875 0.125
d 0.875 0.125
d 0.875 0.125
d 0.875 0.125
d 0.875 0.125
d 0.875 0.125
d 0.875 0.125
d 0.875 0.125
d 0.875 0.125
d 0.875 0.125
d 0.875 0.125
d 0.875 0.125
d 0.875 0.125
d 0.875 0.125
d 0.875 0.125
d 0.875 0.125
d 0.875 0.125
d 0.875 0.125
d 0.875 0.125
d 0.875 0.125
d 0.875 0.125
d 0.875 0.125
d 0.875 0.125
d 0.875 0.125
d 0.875 0.125
d 0.875 0.125
d 0.875 0.125
d 0.875 0.125
d 0.875 0.125
d 0.875 0.125
d 0.875 0.125
d 0.875 0.125
d 0.875 0.125
d 0.875 0.125
d 0.875 0.125
d 0.875 0.125
d 0.875 0.125
d 0.875 0.125
d 0.875 0.125
d 0.875 0.125
d 0.875 0.125
d 0.875 0.125
d 0.875 0.125
d 0.875 0.125
d 0.875 0.125
d 0.875 0.125
d 0.875 0.125
d 0.875 0.125
d 0.875 0.125
d 0.875 0.125
d 0.875 0.125
d 0.875 0.125
d 0.875 0.125
d 0.875 0.125
d 0.875 0.125
d 0.875 0.125
d 0.875 0.125
d 0.875 0.125
d 0.875 0.125
d 0.875 0.125
d 0.875 0.125
d 0.875 0.125
d 0.875 0.125
d 0.875 0.125
d 0.875 0.125
d 0.875 0.125
d 0.875 0.125
d 0.875 0.125
d 0.875 0.125
d 0.875 0.125
d 0.875 0.125
d 0.875 0.125
d 0.875 0.125
d 0.875 0.125
d 0.875 0.125
d 0.875 0.125
d 0.875 0.125
d 0.875 0.125
d 0.875 0.125
d 0.875 0.125
d 0.875 0.125
d 0.875 0.125
d 0.875 0.125
448
-314
423 -397 -0
397 -423 -0
412 -445 -2
445 -412 -2
359 -400 -4
400 -359 -4
379 -414 -6
414 -379 -6
384 -320 -8
320 -384 -8
379 -349 -10
349 -379 -10
439 -324 -12
324 -439 -12
448 -323 -14
323 -448 -14
432 -327 -16
327 -432 -16
409 -319 -18
319 -409 -18
433 -345 -20
345 -433 -20
417 -324 -22
324 -417 -22
363 -443 -24
443 -363 -24
365 -444 -26
444 -365 -26
312 -366 -28
366 -312 -28
324 -380 -30
380 -324 -30
340 -408 -32
408 -340 -32
389 -444 -34
444 -389 -34
369 -406 -36
406 -369 -36
312 -390 -38
390 -312 -38
416 -364 -40
364 -416 -40
405 -413 -42
413 -405 -42
404 -342 -44
342 -404 -44
350 -330 -46
330 -350 -46
340 -335 -48
335 -340 -48
448 -348 -50
348 -448 -50
391 -396 -52
396 -391 -52
386 -323 -54
323 -386 -54
369 -403 -56
403 -369 -56
419 -360 -58
360 -419 -58
422 -441 -60
441 -422 -60
345 -392 -62
392 -345 -62
359 -399 -64
399 -359 -64
343 -405 -66
405 -343 -66
379 -433 -68
433 -379 -68
338 -364 -70
364 -338 -70
391 -354 -72
354 -391 -72
445 -443 -74
443 -445 -74
447 -312 -76
312 -447 -76
398 -445 -78
445 -398 -78
376 -352 -80
352 -376 -80
376 -352 -82
352 -376 -82
362 -351 -84
351 -362 -84
339 -436 -86
436 -339 -86
363 -413 -88
413 -363 -88
354 -377 -90
377 -354 -90
381 -384 -92
384 -381 -92
448 -360 -94
360 -448 -94
327 -426 -96
426 -327 -96
346 -351 -98
351 -346 -98
446 -403 -100
403 -446 -100
386 -355 -102
355 -386 -102
340 -378 -104
378 -340 -104
436 -389 -106
389 -436 -106
349 -402 -108
402 -349 -108
438 -373 -110
373 -438 -110
421 -374 -112
374 -421 -112
373 -318 -114
318 -373 -114
370 -424 -116
424 -370 -116
322 -312 -118
312 -322 -118
440 -394 -120
394 -440 -120
441 -426 -122
426 -441 -122
368 -327 -124
327 -368 -124
387 -394 -126
394 -387 -126
380 -357 -128
357 -380 -128
432 -426 -130
426 -432 -130
369 -343 -132
343 -369 -132
314 -334 -134
334 -314 -134
421 -313 -136
313 -421 -136
437 -317 -138
317 -437 -138
370 -375 -140
375 -370 -140
332 -410 -142
410 -332 -142
315 -329 -144
329 -315 -144
365 -442 -146
442 -365 -146
424 -361 -148
361 -424 -148
328 -377 -150
377 -328 -150
446 -364 -152
364 -446 -152
407 -325 -154
325 -407 -154
347 -388 -156
388 -347 -156
440 -406 -158
406 -440 -158
332 -372 -160
372 -332 -160
346 -351 -162
351 -346 -162
376 -331 -164
331 -376 -164
418 -431 -166
431 -418 -166
423 -425 -168
425 -423 -168
415 -318 -170
318 -415 -170
403 -446 -172
446 -403 -172
322 -390 -174
390 -322 -174
359 -430 -176
430 -359 -176
362 -441 -178
441 -362 -178
369 -342 -180
342 -369 -180
395 -385 -182
385 -395 -182
438 -373 -184
373 -438 -184
347 -415 -186
415 -347 -186
341 -330 -188
330 -341 -188
357 -418 -190
418 -357 -190
323 -348 -192
348 -323 -192
379 -402 -194
402 -379 -194
393 -435 -196
435 -393 -196
393 -372 -198
372 -393 -198
395 -332 -200
332 -395 -200
434 -334 -202
334 -434 -202
436 -368 -204
368 -436 -204
401 -339 -206
339 -401 -206
321 -393 -208
393 -321 -208
320 -384 -210
384 -320 -210
421 -317 -212
317 -421 -212
415 -421 -214
421 -415 -214
379 -414 -216
414 -379 -216
336 -392 -218
392 -336 -218
330 -350 -220
350 -330 -220
427 -358 -222
358 -427 -222
435 -385 -224
385 -435 -224
386 -355 -226
355 -386 -226
336 -430 -228
430 -336 -228
390 -385 -230
385 -390 -230
321 -435 -232
435 -321 -232
316 -360 -234
360 -316 -234
446 -338 -236
338 -446 -236
358 -411 -238
411 -358 -238
371 -442 -240
442 -371 -240
440 -367 -242
367 -440 -242
333 -416 -244
416 -333 -244
382 -349 -246
349 -382 -246
350 -375 -248
375 -350 -248
321 -372 -250
372 -321 -250
418 -434 -252
434 -418 -252
420 -411 -254
411 -420 -254
344 -381 -256
381 -344 -256
424 -361 -258
361 -424 -258
383 -411 -260
411 -383 -260
443 -413 -262
413 -443 -262
440 -387 -264
387 -440 -264
434 -431 -266
431 -434 -266
423 -337 -268
337 -423 -268
425 -352 -270
352 -425 -270
440 -387 -272
387 -440 -272
436 -318 -274
318 -436 -274
317 -353 -276
353 -317 -276
446 -406 -278
406 -446 -278
386 -355 -280
355 -386 -280
425 -390 -282
390 -425 -282
427 -358 -284
358 -427 -284
367 -375 -286
375 -367 -286
421 -313 -288
313 -421 -288
329 -334 -290
334 -329 -290
428 -327 -292
327 -428 -292
354 -325 -294
325 -354 -294
428 -432 -296
432 -428 -296
357 -319 -298
319 -357 -298
328 -383 -300
383 -328 -300
409 -319 -302
319 -409 -302
431 -342 -304
342 -431 -304
429 -322 -306
322 -429 -306
354 -391 -308
391 -354 -308
329 -320 -310
320 -329 -310